50

100 1 307
97 27 296
97 28 292
95 9 354
93 7 343
87 0 360
87 25 298
86 14 291
82 8 343
82 6 338
78 1 242
76 5 247
76 4 329
75 21 297
74 18 238
71 11 293
68 13 289
66 6 308
65 14 308
63 14 313
59 6 228
59 18 238
58 8 341
58 5 354
57 13 314
52 8 341
51 13 224
46 13 336
46 3 305
46 7 275
43 2 342
42 3 334
42 10 341
41 9 278
41 4 290
41 7 237
38 9 147
37 6 342
36 8 357
36 6 249
32 1 166
32 6 193
31 0 245
30 8 319
27 1 144
25 7 80
22 7 208
22 1 291
22 6 303
21 5 248
